Version identifier: 12.10.0.0 | 2019-11-26 | 843d4de
CPXPARAM_WorkMem                                 28672
Tried aggregator 2 times.
MIP Presolve modified 55 coefficients.
Aggregator did 20 substitutions.
Reduced MIP has 94 rows, 120 columns, and 448 nonzeros.
Reduced MIP has 120 binaries, 0 generals, 0 SOSs, and 0 indicators.
Presolve time = 0,00 sec. (0,55 ticks)
Found incumbent of value 80,000000 after 0,00 sec. (1,21 ticks)
Probing time = 0,00 sec. (0,15 ticks)
Tried aggregator 1 time.
Detecting symmetries...
MIP Presolve eliminated 12 rows and 0 columns.
MIP Presolve added 24 rows and 0 columns.
Reduced MIP has 106 rows, 120 columns, and 460 nonzeros.
Reduced MIP has 120 binaries, 0 generals, 0 SOSs, and 0 indicators.
Presolve time = 0,00 sec. (0,50 ticks)
Probing time = 0,00 sec. (0,15 ticks)
Clique table members: 283.
MIP emphasis: balance optimality and feasibility.
MIP search method: dynamic search.
Parallel mode: deterministic, using up to 16 threads.
Root relaxation solution time = 0,00 sec. (0,33 ticks)

        Nodes                                         Cuts/
   Node  Left     Objective  IInf  Best Integer    Best Bound    ItCnt     Gap

*     0+    0                           80,0000        0,0000           100,00%
*     0+    0                           51,0000        0,0000           100,00%
*     0+    0                           50,0000        0,0000           100,00%
      0     0       21,1922    75       50,0000       21,1922       68   57,62%
      0     0       24,1040    75       50,0000     Cuts: 126      116   51,79%
      0     0       25,1398    75       50,0000     Cuts: 123      152   49,72%
      0     0       25,7249    75       50,0000      Cuts: 89      201   48,55%
      0     0       26,7210    75       50,0000      Cuts: 89      244   46,56%
      0     0       27,2327    75       50,0000      Cuts: 60      288   45,53%
      0     0       27,4553    75       50,0000      Cuts: 47      334   45,09%
      0     0       27,5417    75       50,0000      Cuts: 28      360   44,92%
      0     0       27,6032    75       50,0000      Cuts: 25      384   44,79%
      0     0       27,6743    75       50,0000      Cuts: 28      406   44,65%
      0     0       27,7652    75       50,0000      Cuts: 28      431   44,47%
      0     0       27,8786    75       50,0000      Cuts: 20      463   44,24%
      0     0       27,9340    75       50,0000      Cuts: 25      490   44,13%
      0     0       27,9351    75       50,0000   ZeroHalf: 5      496   44,13%
      0     0       27,9462    75       50,0000      Cuts: 13      508   44,11%
      0     0       27,9570    75       50,0000      Cuts: 15      527   44,09%
      0     0       27,9612    75       50,0000      Cuts: 14      544   44,08%
*     0+    0                           48,0000       27,9612            41,75%
*     0+    0                           46,0000       27,9612            39,21%
      0     0        cutoff             46,0000       46,0000      544    0,00%
Elapsed time = 0,20 sec. (81,71 ticks, tree = 0,01 MB, solutions = 5)

GUB cover cuts applied:  9
Clique cuts applied:  19
Cover cuts applied:  29
Mixed integer rounding cuts applied:  14
Zero-half cuts applied:  15
Gomory fractional cuts applied:  8

Root node processing (before b&c):
  Real time             =    0,20 sec. (81,73 ticks)
Parallel b&c, 16 threads:
  Real time             =    0,00 sec. (0,00 ticks)
  Sync time (average)   =    0,00 sec.
  Wait time (average)   =    0,00 sec.
                          ------------
Total (root+branch&cut) =    0,20 sec. (81,73 ticks)
